#######################################
### Exact MIP solver for the HHCRSP ###
#######################################
-- Instance file: new-instances/HHCRSP_100_20_15_0.4_R_C.txt
-- Max threads: 4
-- Time limit: 999999 seconds
-- Use initial solution: No
Trivial flow violations prevented generating 49706 variables.
Model exported.
Version identifier: 20.1.0.0 | 2020-11-10 | 9bedb6d68
CPXPARAM_Threads                                 4
CPXPARAM_TimeLimit                               999999
Parallel mode: deterministic, using up to 4 threads for concurrent optimization:
 * Starting dual Simplex on 1 thread...
 * Starting Barrier on 3 threads...
Tried aggregator 1 time.
LP Presolve eliminated 6408 rows and 1741 columns.
Reduced LP has 65524 rows, 62487 columns, and 818272 nonzeros.
Presolve time = 0.71 sec. (206.57 ticks)
Symmetry aggregator did 86484 additional substitutions.
Initializing dual steep norms . . .

Iteration log . . .
Iteration:     1   Dual objective     =             3.000000

Dual crossover.
  Dual:  Fixing 391 variables.
      390 DMoves:  Infeasibility  1.45217183e-13  Objective  1.86666667e+02
        0 DMoves:  Infeasibility  1.07913689e-13  Objective  1.86666667e+02
  Dual:  Pushed 6, exchanged 385.
  Primal:  Fixing 191 variables.
      190 PMoves:  Infeasibility  1.49880108e-15  Objective  1.86666667e+02
        0 PMoves:  Infeasibility  2.49800181e-15  Objective  1.86666667e+02
  Primal:  Pushed 138, exchanged 53.

Dual simplex solved model.


Solution status from MIP model:
-- Processing time: 1.153 sec.
-- Memory used: 131.154 MB
-- Best bound: inf
-- Obj value: 186.667
-- Gap: inf%
-- Total distance: 560
-- Total tardiness: 0
-- Largest tardiness: 0
